SCIP version 5.0.0 [precision: 8 byte] [memory: block] [mode: optimized] [LP solver: NONE] [GitHash: 3bbd232]
Copyright (C) 2002-2017 Konrad-Zuse-Zentrum fuer Informationstechnik Berlin (ZIB)

External codes: 
  Readline EditLine w  GNU library for command line editing (gnu.org/s/readline)
  CppAD 20160000.1     Algorithmic Differentiation of C++ algorithms developed by B. Bell (www.coin-or.org/CppAD)
  ZLIB 1.2.5           General purpose compression library by J. Gailly and M. Adler (zlib.net)
  GMP 6.1.2            GNU Multiple Precision Arithmetic Library developed by T. Granlund (gmplib.org)

user parameter file <scip.set> not found - using default parameters

read problem <../../Split_data/output/breast/8/4_sample_breast.logreg>
============

File name	:	../../Split_data/output/breast/8/4_sample_breast.logreg
Problem name 	:	4_sample_breast
Number of data	:	155
Number of var	:	33
The given data has linear independence

[dim=1] time: 0.003986
[dim=2] time: 0.007929
[dim=3] time: 0.012089
[dim=4] time: 0.015679
[dim=5] time: 0.01916
[dim=6] time: 0.022468
[dim=7] time: 0.025588
[dim=8] Time of forward = 0.028816sec.
AIC: 144.273
k: 7

[dim=33] time: 0.012773
[dim=32] time: 0.025622
[dim=31] time: 0.035677
[dim=30] time: 0.046406
[dim=29] time: 0.056261
[dim=28] time: 0.064915
[dim=27] time: 0.075276
[dim=26] time: 0.082876
[dim=25] time: 0.088703
[dim=24] time: 0.095276
[dim=23] time: 0.101129
[dim=22] time: 0.106228
[dim=21] time: 0.110661
[dim=20] Time of backward = 0.115618sec.
AIC: 131.73
k: 21
